143506
[224, 124, 123, 122, 121, 120, 119, 118, 219, 117, 116, 115, 114, 113, 112, 214, 111, 110, 109, 108, 107, 106, 209, 105, 104, 103, 102, 101, 100, 204, 203, 202, 201, 200, 75, 179, 178, 177, 176, 175, 50, 154, 153, 152, 151, 150, 25, 129, 128, 127, 126, 125, 0, 1, 2, 3, 4, 5, 6, 7, 8, 9, 10, 11, 12, 13, 14, 15, 16, 17, 18, 19, 20, 21, 22, 23, 24, 145, 146, 147, 148, 173, 172, 171, 170, 49, 149, 48, 47, 46, 45, 44, 43, 42, 41, 40, 39, 38, 37, 36, 35, 34, 33, 32, 31, 30, 29, 28, 27, 26, 51, 52, 53, 54, 55, 56, 57, 58, 59, 60, 61, 62, 63, 64, 65, 66, 67, 68, 69, 70, 71, 72, 73, 74, 174, 195, 196, 197, 198, 218, 217, 216, 215, 93, 92, 91, 90, 89, 88, 87, 86, 85, 84, 83, 82, 81, 184, 183, 182, 181, 180, 159, 158, 157, 156, 155, 134, 133, 132, 131, 130, 135, 136, 137, 138, 139, 160, 161, 162, 163, 164, 185, 186, 187, 188, 189, 210, 211, 212, 213, 208, 207, 206, 205, 80, 79, 78, 77, 76, 140, 141, 142, 143, 144, 165, 166, 167, 168, 169, 190, 191, 192, 193, 194, 94, 95, 96, 97, 98, 99, 199, 220, 221, 222, 223]
